results_rootrelaxation/bin012_090_042.srr.sol
solution status: optimal solution found
objective value:                     28.3333333333333
_var638_                           0.0952380952380952 	(obj:1)
_var644_                            0.142857142857143 	(obj:3)
_var651_                            0.380952380952381 	(obj:2)
_var691_                           0.0952380952380953 	(obj:3)
_var708_                            0.333333333333333 	(obj:2)
_var715_                            0.904761904761905 	(obj:1)
_var716_                           0.0476190476190476 	(obj:3)
_var718_                           0.0476190476190476 	(obj:2)
_var727_                            0.380952380952381 	(obj:4)
_var728_                            0.142857142857143 	(obj:3)
_var729_                            0.333333333333333 	(obj:3)
_var731_                            0.761904761904762 	(obj:2)
_var742_                            0.238095238095238 	(obj:2)
_var747_                            0.238095238095238 	(obj:3)
_var755_                           0.0952380952380953 	(obj:4)
_var767_                            0.238095238095238 	(obj:3)
_var776_                           0.0952380952380953 	(obj:3)
_var785_                            0.380952380952381 	(obj:2)
_var790_                            0.476190476190476 	(obj:2)
_var798_                            0.428571428571429 	(obj:2)
_var799_                            0.238095238095238 	(obj:4)
_var802_                           0.0952380952380953 	(obj:3)
_var804_                           0.0476190476190476 	(obj:4)
_var811_                            0.476190476190476 	(obj:3)
_var815_                            0.285714285714286 	(obj:4)
_var833_                            0.666666666666667 	(obj:2)
_var838_                           0.0952380952380953 	(obj:2)
_var841_                           0.0952380952380953 	(obj:4)
_var843_                            0.142857142857143 	(obj:2)
_var846_                            0.142857142857143 	(obj:4)
_var847_                            0.476190476190476 	(obj:2)
_var849_                           0.0952380952380953 	(obj:2)
_var852_                            0.523809523809524 	(obj:4)
_var860_                           0.0476190476190476 	(obj:3)
_var865_                             0.19047619047619 	(obj:3)
_var870_                            0.380952380952381 	(obj:3)
_var875_                             0.19047619047619 	(obj:3)
_var881_                            0.238095238095238 	(obj:2)
_var884_                           0.0952380952380953 	(obj:3)
_var892_                           0.0476190476190476 	(obj:4)
_var897_                           0.0952380952380953 	(obj:2)
_var903_                           0.0952380952380952 	(obj:4)
_var905_                           0.0952380952380953 	(obj:4)
_var907_                           0.0476190476190476 	(obj:4)
_var911_                            0.142857142857143 	(obj:3)
_var915_                           0.0476190476190476 	(obj:4)
_var919_                           0.0476190476190476 	(obj:4)
